
******************************************************************************
This program contains Ipopt, a library for large-scale nonlinear optimization.
 Ipopt is released as open source code under the Eclipse Public License (EPL).
         For more information visit http://projects.coin-or.org/Ipopt

This version of Ipopt was compiled from source code available at
    https://github.com/IDAES/Ipopt as part of the Institute for the Design of
    Advanced Energy Systems Process Systems Engineering Framework (IDAES PSE
    Framework) Copyright (c) 2018-2019. See https://github.com/IDAES/idaes-pse.

This version of Ipopt was compiled using HSL, a collection of Fortran codes
    for large-scale scientific computation.  All technical papers, sales and
    publicity material resulting from use of the HSL codes within IPOPT must
    contain the following acknowledgement:
        HSL, a collection of Fortran codes for large-scale scientific
        computation. See http://www.hsl.rl.ac.uk.
******************************************************************************

This is Ipopt version 3.13.2, running with linear solver ma27.

Number of nonzeros in equality constraint Jacobian...:     1210
Number of nonzeros in inequality constraint Jacobian.:        0
Number of nonzeros in Lagrangian Hessian.............:     1376

Total number of variables............................:      480
                     variables with only lower bounds:      128
                variables with lower and upper bounds:      288
                     variables with only upper bounds:        0
Total number of equality constraints.................:      477
Total number of inequality constraints...............:        0
        inequality constraints with only lower bounds:        0
   inequality constraints with lower and upper bounds:        0
        inequality constraints with only upper bounds:        0

iter    objective    inf_pr   inf_du lg(mu)  ||d||  lg(rg) alpha_du alpha_pr  ls
   0  0.0000000e+00 1.80e+00 9.10e-15  -1.0 0.00e+00    -  0.00e+00 0.00e+00   0
   1  1.8868761e+00 1.74e+00 1.59e+05  -1.0 4.20e+06    -  6.07e-02 2.71e-02h  4
   2  6.6442299e+00 1.70e+00 2.66e+05  -1.0 3.95e+06    -  5.62e-02 2.33e-02h  4
   3  1.5081655e+01 1.66e+00 3.55e+05  -1.0 5.54e+06    -  5.24e-02 2.17e-02h  4
   4  5.8409818e+01 1.57e+00 8.15e+05  -1.0 7.88e+06    -  5.12e-02 4.98e-02h  3
   5  7.4700076e+01 1.54e+00 7.97e+05  -1.0 1.44e+07    -  5.64e-02 8.86e-03h  5
   6  7.7490322e+01 1.54e+00 7.95e+05  -1.0 1.55e+07    -  2.32e-02 1.51e-03h  7
   7  7.7603974e+01 1.54e+00 7.95e+05  -1.0 3.45e+07    -  7.46e-03 1.72e-04h  9
   8  7.7782102e+01 1.54e+00 7.95e+05  -1.0 3.06e+07    -  7.38e-03 1.71e-04h  9
   9  7.9347748e+01 1.54e+00 7.94e+05  -1.0 1.73e+07    -  4.29e-02 7.45e-04h  8
iter    objective    inf_pr   inf_du lg(mu)  ||d||  lg(rg) alpha_du alpha_pr  ls
  10  8.1778841e+01 1.53e+00 7.93e+05  -1.0 1.83e+07    -  5.37e-02 1.02e-03h  8
  11  2.2631646e+03 9.30e+00 1.98e+07  -1.0 1.89e+07    -  7.13e-02 2.37e-01w  1
  12  2.2654561e+03 9.30e+00 1.98e+07  -1.0 1.94e+07  -4.0 9.86e-02 3.93e-04w  1
  13  2.2654801e+03 9.30e+00 1.98e+07  -1.0 1.95e+07  -4.5 9.96e-02 3.99e-06w  1
  14  7.8868138e+02 1.28e+00 4.95e+06  -1.0 4.37e+07  -5.0 7.13e-02 1.18e-01h  1
  15  8.7982764e+02 1.27e+00 4.73e+07  -1.0 2.95e+07  -4.5 6.19e-02 1.05e-02h  3
  16  9.6006114e+02 1.25e+00 4.85e+08  -1.0 2.59e+07  -4.1 3.12e-02 1.21e-02h  2
  17  9.4279313e+02 1.24e+00 4.96e+08  -1.0 2.10e+08  -4.6 4.76e-03 5.97e-04f  4
  18  9.5221675e+02 1.24e+00 5.28e+08  -1.0 1.24e+07  -4.2 9.61e-02 3.96e-03h  3
  19  9.5355406e+02 1.23e+00 5.29e+08  -1.0 1.18e+07  -4.6 8.42e-02 6.03e-03h  3
iter    objective    inf_pr   inf_du lg(mu)  ||d||  lg(rg) alpha_du alpha_pr  ls
  20  7.5001844e+02 1.12e+00 1.16e+09  -1.0 4.82e+07    -  7.57e-02 1.27e-02f  2
  21  7.5677523e+02 1.11e+00 1.16e+09  -1.0 8.79e+06  -3.3 7.94e-02 3.52e-03h  4
  22  7.5721792e+02 1.11e+00 1.16e+09  -1.0 9.18e+06  -2.9 6.63e-02 2.18e-04h  8
  23  7.5757970e+02 1.11e+00 1.24e+09  -1.0 8.05e+06  -0.6 1.08e-01 2.11e-04h  7
  24  7.6491165e+02 1.11e+00 6.53e+09  -1.0 8.47e+06  -1.1 2.32e-01 3.61e-03h  3
  25  8.5328527e+02 5.17e+00 2.35e+11  -1.0 8.46e+06  -1.6 1.40e-01 3.41e-02w  1
MA27BD returned iflag=-4 and requires more memory.
 Increase liw from 19240 to 38480 and la from 22500 to 46602 and factorize again.
  26  8.6511787e+02 5.05e+00 7.31e+11  -1.0 8.49e+06  -1.2 1.94e-01 2.46e-02w  1
  27  8.4644346e+02 4.99e+00 6.95e+11  -1.0 1.19e+07  -1.6 1.87e-01 1.08e-02w  1
  28  7.8379686e+02 1.10e+00 3.42e+09  -1.0 1.47e+07  -2.1 1.40e-01 8.52e-03h  2
  29  7.7972837e+02 1.10e+00 3.42e+09  -1.0 2.44e+09    -  2.69e-04 5.10e-06f  9
iter    objective    inf_pr   inf_du lg(mu)  ||d||  lg(rg) alpha_du alpha_pr  ls
  30  7.2928278e+02 1.43e+00 3.27e+09  -1.0 1.01e+08    -  1.18e-02 1.32e-03f  5
  31  7.2998410e+02 1.43e+00 3.27e+09  -1.0 7.72e+06  -1.7 9.79e-02 4.95e-04h  7
  32  7.4240902e+02 1.42e+00 2.94e+09  -1.0 1.45e+07    -  3.66e-01 6.25e-03h  4
  33  7.4298940e+02 1.42e+00 2.98e+09  -1.0 7.10e+06  -1.3 1.24e-01 4.14e-04h  7
  34  7.4334577e+02 1.42e+00 2.99e+09  -1.0 8.66e+06  -1.8 1.12e-01 3.39e-04h  8
  35  7.4708055e+02 1.41e+00 1.45e+10  -1.0 7.11e+06  -0.4 2.77e-01 2.90e-03h  4
  36  6.0388091e+02 1.40e+00 9.23e+10  -1.0 4.58e+07    -  6.41e-01 1.14e-02f  2
  37  5.3115381e+02 1.41e+00 1.33e+11  -1.0 2.48e+07    -  7.16e-01 1.36e-02f  2
  38  5.4182825e+02 3.37e+00 4.45e+12  -1.0 2.82e+06   0.9 2.93e-01 1.78e-02w  1
  39  5.4266182e+02 3.34e+00 4.47e+12  -1.0 4.93e+06   0.4 3.88e-01 3.36e-03w  1
iter    objective    inf_pr   inf_du lg(mu)  ||d||  lg(rg) alpha_du alpha_pr  ls
  40  5.5116824e+02 5.15e+00 1.44e+12  -1.0 6.15e+06  -0.0 3.72e-02 7.07e-02w  1
  41  5.3374455e+02 1.40e+00 8.81e+10  -1.0 4.96e+06   3.1 2.93e-01 4.46e-03h  2
  42  4.9418284e+02 1.40e+00 9.49e+10  -1.0 1.45e+08    -  3.18e-03 8.42e-04f  5
  43  4.9692133e+02 1.40e+00 1.35e+13  -1.0 3.22e+06   2.6 3.67e-01 5.08e-03h  3
  44  4.9945339e+02 1.39e+00 1.89e+13  -1.0 3.45e+06   2.1 5.45e-01 5.35e-03h  3
  45  5.0144263e+02 1.38e+00 2.11e+13  -1.0 3.85e+06   1.7 3.10e-01 5.90e-03h  3
  46  4.4733253e+02 1.37e+00 1.32e+13  -1.0 4.97e+07    -  3.37e-01 5.61e-03f  2
  47  4.2204271e+02 1.37e+00 1.03e+13  -1.0 3.74e+07    -  5.24e-01 4.11e-03f  3
  48  3.9916330e+02 1.36e+00 7.55e+12  -1.0 3.36e+07    -  5.85e-01 4.63e-03f  3
  49  3.8075271e+02 1.35e+00 5.45e+12  -1.0 3.04e+07    -  6.38e-01 4.63e-03f  3
iter    objective    inf_pr   inf_du lg(mu)  ||d||  lg(rg) alpha_du alpha_pr  ls
  50  3.6434351e+02 1.35e+00 3.47e+12  -1.0 2.78e+07    -  9.45e-01 5.13e-03f  3
  51  3.1640312e+02 1.31e+00 2.18e+13  -1.0 2.57e+07    -  9.88e-01 2.55e-02f  1
  52  3.1881112e+02 1.31e+00 2.17e+13  -1.0 8.10e+06    -  1.03e-01 2.59e-03H  1
  53  3.0278450e+02 1.02e+01 4.24e+21  -1.0 1.24e+08    -  7.70e-02 2.09e-03f  1
Scaling factors are invalid - setting them all to 1.
  54r 3.0278450e+02 1.02e+01 1.00e+03   1.0 0.00e+00   6.6 0.00e+00 5.22e-09R  2
  55r 3.0278450e+02 1.21e+00 1.76e+03   1.0 1.02e+04    -  3.77e-02 9.90e-04f  1
  56  3.0278461e+02 1.27e+03 5.51e+14  -1.0 6.98e+09    -  5.25e-11 7.46e-10H  1
  57  3.0278457e+02 1.27e+03 5.51e+14  -1.0 2.69e+06    -  3.62e-02 5.16e-07h  8
  58r 3.0278457e+02 1.27e+03 9.99e+02   3.1 0.00e+00   6.1 0.00e+00 3.70e-07R  8
  59r 3.0278456e+02 2.48e+02 9.91e+02   3.1 1.22e+06    -  8.24e-03 6.27e-04f  1
iter    objective    inf_pr   inf_du lg(mu)  ||d||  lg(rg) alpha_du alpha_pr  ls
  60  3.0280783e+02 2.47e+02 5.71e+02  -1.0 3.59e+06    -  9.37e-03 4.53e-04h  8
  61  3.0398604e+02 2.47e+02 2.70e+03  -1.0 9.50e+06    -  4.25e-02 1.59e-03h  4
  62  3.0784297e+02 2.46e+02 8.75e+03  -1.0 1.25e+07    -  4.89e-02 4.11e-03h  5
  63  3.0892480e+02 2.46e+02 8.90e+03  -1.0 1.85e+07    -  4.94e-02 7.20e-04h  8
  64  3.1281822e+02 2.45e+02 9.48e+03  -1.0 2.03e+07    -  2.25e-02 2.37e-03h  7
  65  3.1354497e+02 2.45e+02 9.69e+03  -1.0 2.40e+07    -  4.08e-02 3.47e-04h 10
  66  3.1732040e+02 2.45e+02 1.03e+04  -1.0 2.47e+07    -  3.33e-02 1.71e-03h  8
  67  3.1803290e+02 2.45e+02 1.09e+04  -1.0 2.72e+07    -  3.81e-02 2.87e-04h 11
  68  3.2148950e+02 2.45e+02 1.16e+04  -1.0 2.78e+07    -  3.76e-02 1.33e-03h  9
  69  3.2358095e+02 2.44e+02 1.21e+04  -1.0 2.96e+07    -  3.91e-02 7.34e-04h 10
iter    objective    inf_pr   inf_du lg(mu)  ||d||  lg(rg) alpha_du alpha_pr  ls
  70  1.1640404e+04 1.59e+02 2.15e+07  -1.0 3.06e+07    -  6.03e-02 4.49e-01w  1
  71  1.7436288e+05 1.20e+03 2.44e+08  -1.0 1.79e+08    -  2.14e-04 2.33e-01w  1
  72  3.6402157e+05 4.53e+02 2.72e+08  -1.0 2.07e+08    -  3.03e-03 1.45e-01w  1
  73  3.2423567e+02 2.44e+02 1.27e+04  -1.0 4.79e+07   5.6 6.03e-02 2.19e-04h 11
  74  3.2854310e+02 2.44e+02 1.28e+04  -1.0 3.10e+07    -  4.54e-02 1.38e-03h 10
  75  3.2858937e+02 2.44e+02 1.25e+04  -1.0 3.73e+07    -  2.25e-02 1.46e-05h 15
  76  3.2858938e+02 2.44e+02 2.90e+09  -1.0 3.81e+06   5.2 5.75e-02 4.16e-06h  3
  77r 3.2858938e+02 2.44e+02 1.00e+03   2.4 0.00e+00   4.7 0.00e+00 3.89e-07R  6
  78r 3.2858938e+02 2.10e+02 1.37e+03   2.4 2.41e+05    -  3.13e-02 1.39e-04f  1
  79r 3.2858904e+02 1.05e+02 1.87e+03   2.4 6.36e+03    -  1.73e-02 3.28e-02f  1
iter    objective    inf_pr   inf_du lg(mu)  ||d||  lg(rg) alpha_du alpha_pr  ls
  80  3.2859774e+02 1.05e+02 1.23e+02  -1.0 9.27e+06    -  2.67e-02 1.34e-05h  5
  81  3.2860396e+02 1.04e+02 2.92e+02  -1.0 5.40e+06    -  1.06e-02 1.49e-05h 10
  82  3.2951817e+02 1.04e+02 3.41e+04  -1.0 3.70e+06    -  8.83e-03 8.83e-03s 19
  83  3.3357015e+02 1.04e+02 5.24e+04  -1.0 1.91e+07    -  2.19e-03 2.19e-03s 19
  84  3.3801719e+02 1.04e+02 7.73e+04  -1.0 2.04e+07    -  2.09e-03 2.09e-03s 19
  85  3.3853701e+02 1.04e+02 7.76e+04  -1.0 2.22e+07    -  2.07e-04 2.07e-04s 19
  86  4.9925210e+02 9.82e+01 1.89e+07  -1.0 2.24e+07    -  4.33e-02 4.33e-02s 19
  87r 4.9925210e+02 9.82e+01 9.99e+02   2.0 0.00e+00   4.2 0.00e+00 0.00e+00R  1
  88r 4.9925209e+02 6.00e+01 1.16e+03   2.0 9.60e+04    -  1.46e-02 3.84e-04f  1
  89r 4.9925209e+02 5.63e+01 1.21e+03   2.0 2.38e+03   0.0 7.67e-03 5.12e-03f  1
iter    objective    inf_pr   inf_du lg(mu)  ||d||  lg(rg) alpha_du alpha_pr  ls
  90r 4.9925185e+02 3.06e+01 8.80e+03   2.0 2.70e+03    -  3.15e-02 1.45e-02f  1
  91r 4.9925185e+02 1.16e+02 1.10e+04   2.0 1.15e+01   2.2 7.74e-02 7.76e-02f  1
  92r 4.9925185e+02 1.49e+01 1.71e+06   2.0 1.10e+01   3.6 4.72e-03 1.25e-02f  1
  93r 4.9925185e+02 9.40e+00 5.19e+13   2.0 7.12e-01   5.8 3.00e-03 1.67e-02H  1
  94r 4.9925185e+02 1.02e+01 4.92e+20   2.0 3.84e-01   9.4 1.47e-01 1.00e+00f  1
Scaling factors are invalid - setting them all to 1.
Scaling factors are invalid - setting them all to 1.
Scaling factors are invalid - setting them all to 1.
Scaling factors are invalid - setting them all to 1.
Scaling factors are invalid - setting them all to 1.
Scaling factors are invalid - setting them all to 1.
Scaling factors are invalid - setting them all to 1.
Scaling factors are invalid - setting them all to 1.
Scaling factors are invalid - setting them all to 1.
Scaling factors are invalid - setting them all to 1.
Scaling factors are invalid - setting them all to 1.
Scaling factors are invalid - setting them all to 1.
Scaling factors are invalid - setting them all to 1.
Scaling factors are invalid - setting them all to 1.
WARNING: Problem in step computation; switching to emergency mode.
  95r 4.9925185e+02 1.02e+01 4.92e+20   2.0 3.84e-01  19.6 0.00e+00 0.00e+00R  1
Scaling factors are invalid - setting them all to 1.
Scaling factors are invalid - setting them all to 1.
Scaling factors are invalid - setting them all to 1.
Scaling factors are invalid - setting them all to 1.
Scaling factors are invalid - setting them all to 1.
Scaling factors are invalid - setting them all to 1.
Scaling factors are invalid - setting them all to 1.
Scaling factors are invalid - setting them all to 1.
Scaling factors are invalid - setting them all to 1.
Scaling factors are invalid - setting them all to 1.
Scaling factors are invalid - setting them all to 1.
Scaling factors are invalid - setting them all to 1.
Scaling factors are invalid - setting them all to 1.
Scaling factors are invalid - setting them all to 1.
WARNING: Problem in step computation; switching to emergency mode.
Restoration phase is called at point that is almost feasible,
  with constraint violation 0.000000e+00. Abort.
Restoration phase in the restoration phase failed.

Number of Iterations....: 95

                                   (scaled)                 (unscaled)
Objective...............:   4.9925185006499885e+02    4.9925185006499885e+02
Dual infeasibility......:   4.9232031713863893e+20    4.9232031713863893e+20
Constraint violation....:   1.0228840291805964e+01    1.0228840291805964e+01
Complementarity.........:   6.7258621585459876e+08    6.7258621585459876e+08
Overall NLP error.......:   5.5895651199244136e+16    4.9232031713863893e+20


Number of objective function evaluations             = 469
Number of objective gradient evaluations             = 88
Number of equality constraint evaluations            = 469
Number of inequality constraint evaluations          = 0
Number of equality constraint Jacobian evaluations   = 100
Number of inequality constraint Jacobian evaluations = 0
Number of Lagrangian Hessian evaluations             = 96
Total CPU secs in IPOPT (w/o function evaluations)   =      0.509
Total CPU secs in NLP function evaluations           =      4.721

EXIT: Restoration Failed!
